p cnf 530 1800
c p weight 212 -1 0
c p weight -212 1 0
c p weight 214 6.12323399573676603586882014729198302312846062338790031898128063403419218957424163818359375E-17 0
c p weight -214 1 0
c p weight 215 1 0
c p weight -215 1 0
c p weight 216 -1 0
c p weight -216 1 0
c p weight 218 -1 0
c p weight -218 1 0
c p weight 221 -1 0
c p weight -221 1 0
c p weight 224 -1 0
c p weight -224 1 0
c p weight 227 -1 0
c p weight -227 1 0
c p weight 230 -1 0
c p weight -230 1 0
c p weight 233 -1 0
c p weight -233 1 0
c p weight 236 -1 0
c p weight -236 1 0
c p weight 239 -1 0
c p weight -239 1 0
c p weight 242 -1 0
c p weight -242 1 0
c p weight 245 -1 0
c p weight -245 1 0
c p weight 248 -1 0
c p weight -248 1 0
c p weight 251 -1 0
c p weight -251 1 0
c p weight 254 -1 0
c p weight -254 1 0
c p weight 257 -1 0
c p weight -257 1 0
c p weight 260 -1 0
c p weight -260 1 0
c p weight 263 -1 0
c p weight -263 1 0
c p weight 266 -1 0
c p weight -266 1 0
c p weight 269 -1 0
c p weight -269 1 0
c p weight 272 -1 0
c p weight -272 1 0
c p weight 275 -1 0
c p weight -275 1 0
c p weight 278 -1 0
c p weight -278 1 0
c p weight 281 -1 0
c p weight -281 1 0
c p weight 284 -1 0
c p weight -284 1 0
c p weight 287 -1 0
c p weight -287 1 0
c p weight 290 -1 0
c p weight -290 1 0
c p weight 293 -1 0
c p weight -293 1 0
c p weight 296 -1 0
c p weight -296 1 0
c p weight 299 -1 0
c p weight -299 1 0
c p weight 302 -1 0
c p weight -302 1 0
c p weight 305 -1 0
c p weight -305 1 0
c p weight 308 -1 0
c p weight -308 1 0
c p weight 311 -1 0
c p weight -311 1 0
c p weight 314 -1 0
c p weight -314 1 0
c p weight 317 -1 0
c p weight -317 1 0
c p weight 320 -1 0
c p weight -320 1 0
c p weight 323 -1 0
c p weight -323 1 0
c p weight 326 -1 0
c p weight -326 1 0
c p weight 329 -1 0
c p weight -329 1 0
c p weight 332 -1 0
c p weight -332 1 0
c p weight 335 -1 0
c p weight -335 1 0
c p weight 338 -1 0
c p weight -338 1 0
c p weight 341 -1 0
c p weight -341 1 0
c p weight 344 -1 0
c p weight -344 1 0
c p weight 347 -1 0
c p weight -347 1 0
c p weight 350 -1 0
c p weight -350 1 0
c p weight 353 -1 0
c p weight -353 1 0
c p weight 356 -1 0
c p weight -356 1 0
c p weight 359 -1 0
c p weight -359 1 0
c p weight 362 -1 0
c p weight -362 1 0
c p weight 365 -1 0
c p weight -365 1 0
c p weight 368 -1 0
c p weight -368 1 0
c p weight 371 -1 0
c p weight -371 1 0
c p weight 374 -1 0
c p weight -374 1 0
c p weight 377 -1 0
c p weight -377 1 0
c p weight 380 -1 0
c p weight -380 1 0
c p weight 383 -1 0
c p weight -383 1 0
c p weight 386 -1 0
c p weight -386 1 0
c p weight 389 -1 0
c p weight -389 1 0
c p weight 392 -1 0
c p weight -392 1 0
c p weight 395 -1 0
c p weight -395 1 0
c p weight 398 -1 0
c p weight -398 1 0
c p weight 401 -1 0
c p weight -401 1 0
c p weight 404 -1 0
c p weight -404 1 0
c p weight 407 -1 0
c p weight -407 1 0
c p weight 410 -1 0
c p weight -410 1 0
c p weight 413 -1 0
c p weight -413 1 0
c p weight 416 -1 0
c p weight -416 1 0
c p weight 419 -1 0
c p weight -419 1 0
c p weight 422 -1 0
c p weight -422 1 0
c p weight 425 -1 0
c p weight -425 1 0
c p weight 428 -1 0
c p weight -428 1 0
c p weight 431 -1 0
c p weight -431 1 0
c p weight 434 -1 0
c p weight -434 1 0
c p weight 437 -1 0
c p weight -437 1 0
c p weight 440 -1 0
c p weight -440 1 0
c p weight 443 -1 0
c p weight -443 1 0
c p weight 446 -1 0
c p weight -446 1 0
c p weight 449 -1 0
c p weight -449 1 0
c p weight 452 -1 0
c p weight -452 1 0
c p weight 455 -1 0
c p weight -455 1 0
c p weight 458 -1 0
c p weight -458 1 0
c p weight 461 -1 0
c p weight -461 1 0
c p weight 464 -1 0
c p weight -464 1 0
c p weight 467 -1 0
c p weight -467 1 0
c p weight 470 -1 0
c p weight -470 1 0
c p weight 473 -1 0
c p weight -473 1 0
c p weight 476 -1 0
c p weight -476 1 0
c p weight 479 -1 0
c p weight -479 1 0
c p weight 482 -1 0
c p weight -482 1 0
c p weight 485 -1 0
c p weight -485 1 0
c p weight 488 -1 0
c p weight -488 1 0
c p weight 491 -1 0
c p weight -491 1 0
c p weight 494 -1 0
c p weight -494 1 0
c p weight 497 -1 0
c p weight -497 1 0
c p weight 500 -1 0
c p weight -500 1 0
c p weight 503 -1 0
c p weight -503 1 0
c p weight 506 -1 0
c p weight -506 1 0
c p weight 509 -1 0
c p weight -509 1 0
c p weight 512 -1 0
c p weight -512 1 0
c p weight 515 -1 0
c p weight -515 1 0
c p weight 518 -1 0
c p weight -518 1 0
c p weight 521 -1 0
c p weight -521 1 0
c p weight 524 -1 0
c p weight -524 1 0
c p weight 527 -1 0
c p weight -527 1 0
c p weight 530 -1 0
c p weight -530 1 0
-209 0
-207 0
-205 0
-203 0
-201 0
-199 0
-197 0
-195 0
-193 0
-191 0
-189 0
-187 0
-185 0
-183 0
-181 0
-179 0
-177 0
-175 0
-173 0
-171 0
-169 0
-167 0
-165 0
-163 0
-161 0
-159 0
-157 0
-155 0
-153 0
-151 0
-149 0
-147 0
-145 0
-143 0
-141 0
-139 0
-137 0
-135 0
-133 0
-131 0
-129 0
-127 0
-125 0
-123 0
-121 0
-119 0
-117 0
-115 0
-113 0
-111 0
-109 0
-107 0
-105 0
-103 0
-101 0
-99 0
-97 0
-95 0
-93 0
-91 0
-89 0
-87 0
-85 0
-83 0
-81 0
-79 0
-77 0
-75 0
-73 0
-71 0
-69 0
-67 0
-65 0
-63 0
-61 0
-59 0
-57 0
-55 0
-53 0
-51 0
-49 0
-47 0
-45 0
-43 0
-41 0
-39 0
-37 0
-35 0
-33 0
-31 0
-29 0
-27 0
-25 0
-23 0
-21 0
-19 0
-17 0
-15 0
-13 0
-11 0
-9 0
-7 0
-5 0
-3 0
-1 0
211 209 -210 0
211 -209 210 0
-211 209 210 0
-211 -209 -210 0
-212 209 0
-212 210 0
212 -209 -210 0
213 -209 211 0
-213 209 211 0
-214 211 0
213 -214 -209 0
-213 -214 209 0
213 214 209 -211 0
-213 214 -209 -211 0
-215 211 0
213 -215 209 0
-213 -215 -209 0
213 215 -209 -211 0
-213 215 209 -211 0
-216 213 0
-216 211 0
-216 -209 0
216 -213 209 -211 0
217 213 -211 0
217 -213 211 0
-217 213 211 0
-217 -213 -211 0
-218 213 0
-218 211 0
218 -213 -211 0
219 213 -207 0
219 -213 207 0
-219 213 207 0
-219 -213 -207 0
220 217 -208 0
220 -217 208 0
-220 217 208 0
-220 -217 -208 0
-221 213 0
-221 208 0
-221 207 -217 0
-221 -207 217 0
221 -213 207 217 -208 0
221 -213 -207 -217 -208 0
222 219 -205 0
222 -219 205 0
-222 219 205 0
-222 -219 -205 0
223 208 -206 0
223 -208 206 0
-223 208 206 0
-223 -208 -206 0
-224 219 0
-224 206 0
-224 205 -208 0
-224 -205 208 0
224 -219 205 208 -206 0
224 -219 -205 -208 -206 0
225 222 -203 0
225 -222 203 0
-225 222 203 0
-225 -222 -203 0
226 206 -204 0
226 -206 204 0
-226 206 204 0
-226 -206 -204 0
-227 222 0
-227 204 0
-227 203 -206 0
-227 -203 206 0
227 -222 203 206 -204 0
227 -222 -203 -206 -204 0
228 225 -201 0
228 -225 201 0
-228 225 201 0
-228 -225 -201 0
229 204 -202 0
229 -204 202 0
-229 204 202 0
-229 -204 -202 0
-230 225 0
-230 202 0
-230 201 -204 0
-230 -201 204 0
230 -225 201 204 -202 0
230 -225 -201 -204 -202 0
231 228 -199 0
231 -228 199 0
-231 228 199 0
-231 -228 -199 0
232 202 -200 0
232 -202 200 0
-232 202 200 0
-232 -202 -200 0
-233 228 0
-233 200 0
-233 199 -202 0
-233 -199 202 0
233 -228 199 202 -200 0
233 -228 -199 -202 -200 0
234 231 -197 0
234 -231 197 0
-234 231 197 0
-234 -231 -197 0
235 200 -198 0
235 -200 198 0
-235 200 198 0
-235 -200 -198 0
-236 231 0
-236 198 0
-236 197 -200 0
-236 -197 200 0
236 -231 197 200 -198 0
236 -231 -197 -200 -198 0
237 234 -195 0
237 -234 195 0
-237 234 195 0
-237 -234 -195 0
238 198 -196 0
238 -198 196 0
-238 198 196 0
-238 -198 -196 0
-239 234 0
-239 196 0
-239 195 -198 0
-239 -195 198 0
239 -234 195 198 -196 0
239 -234 -195 -198 -196 0
240 237 -193 0
240 -237 193 0
-240 237 193 0
-240 -237 -193 0
241 196 -194 0
241 -196 194 0
-241 196 194 0
-241 -196 -194 0
-242 237 0
-242 194 0
-242 193 -196 0
-242 -193 196 0
242 -237 193 196 -194 0
242 -237 -193 -196 -194 0
243 240 -191 0
243 -240 191 0
-243 240 191 0
-243 -240 -191 0
244 194 -192 0
244 -194 192 0
-244 194 192 0
-244 -194 -192 0
-245 240 0
-245 192 0
-245 191 -194 0
-245 -191 194 0
245 -240 191 194 -192 0
245 -240 -191 -194 -192 0
246 243 -189 0
246 -243 189 0
-246 243 189 0
-246 -243 -189 0
247 192 -190 0
247 -192 190 0
-247 192 190 0
-247 -192 -190 0
-248 243 0
-248 190 0
-248 189 -192 0
-248 -189 192 0
248 -243 189 192 -190 0
248 -243 -189 -192 -190 0
249 246 -187 0
249 -246 187 0
-249 246 187 0
-249 -246 -187 0
250 190 -188 0
250 -190 188 0
-250 190 188 0
-250 -190 -188 0
-251 246 0
-251 188 0
-251 187 -190 0
-251 -187 190 0
251 -246 187 190 -188 0
251 -246 -187 -190 -188 0
252 249 -185 0
252 -249 185 0
-252 249 185 0
-252 -249 -185 0
253 188 -186 0
253 -188 186 0
-253 188 186 0
-253 -188 -186 0
-254 249 0
-254 186 0
-254 185 -188 0
-254 -185 188 0
254 -249 185 188 -186 0
254 -249 -185 -188 -186 0
255 252 -183 0
255 -252 183 0
-255 252 183 0
-255 -252 -183 0
256 186 -184 0
256 -186 184 0
-256 186 184 0
-256 -186 -184 0
-257 252 0
-257 184 0
-257 183 -186 0
-257 -183 186 0
257 -252 183 186 -184 0
257 -252 -183 -186 -184 0
258 255 -181 0
258 -255 181 0
-258 255 181 0
-258 -255 -181 0
259 184 -182 0
259 -184 182 0
-259 184 182 0
-259 -184 -182 0
-260 255 0
-260 182 0
-260 181 -184 0
-260 -181 184 0
260 -255 181 184 -182 0
260 -255 -181 -184 -182 0
261 258 -179 0
261 -258 179 0
-261 258 179 0
-261 -258 -179 0
262 182 -180 0
262 -182 180 0
-262 182 180 0
-262 -182 -180 0
-263 258 0
-263 180 0
-263 179 -182 0
-263 -179 182 0
263 -258 179 182 -180 0
263 -258 -179 -182 -180 0
264 261 -177 0
264 -261 177 0
-264 261 177 0
-264 -261 -177 0
265 180 -178 0
265 -180 178 0
-265 180 178 0
-265 -180 -178 0
-266 261 0
-266 178 0
-266 177 -180 0
-266 -177 180 0
266 -261 177 180 -178 0
266 -261 -177 -180 -178 0
267 264 -175 0
267 -264 175 0
-267 264 175 0
-267 -264 -175 0
268 178 -176 0
268 -178 176 0
-268 178 176 0
-268 -178 -176 0
-269 264 0
-269 176 0
-269 175 -178 0
-269 -175 178 0
269 -264 175 178 -176 0
269 -264 -175 -178 -176 0
270 267 -173 0
270 -267 173 0
-270 267 173 0
-270 -267 -173 0
271 176 -174 0
271 -176 174 0
-271 176 174 0
-271 -176 -174 0
-272 267 0
-272 174 0
-272 173 -176 0
-272 -173 176 0
272 -267 173 176 -174 0
272 -267 -173 -176 -174 0
273 270 -171 0
273 -270 171 0
-273 270 171 0
-273 -270 -171 0
274 174 -172 0
274 -174 172 0
-274 174 172 0
-274 -174 -172 0
-275 270 0
-275 172 0
-275 171 -174 0
-275 -171 174 0
275 -270 171 174 -172 0
275 -270 -171 -174 -172 0
276 273 -169 0
276 -273 169 0
-276 273 169 0
-276 -273 -169 0
277 172 -170 0
277 -172 170 0
-277 172 170 0
-277 -172 -170 0
-278 273 0
-278 170 0
-278 169 -172 0
-278 -169 172 0
278 -273 169 172 -170 0
278 -273 -169 -172 -170 0
279 276 -167 0
279 -276 167 0
-279 276 167 0
-279 -276 -167 0
280 170 -168 0
280 -170 168 0
-280 170 168 0
-280 -170 -168 0
-281 276 0
-281 168 0
-281 167 -170 0
-281 -167 170 0
281 -276 167 170 -168 0
281 -276 -167 -170 -168 0
282 279 -165 0
282 -279 165 0
-282 279 165 0
-282 -279 -165 0
283 168 -166 0
283 -168 166 0
-283 168 166 0
-283 -168 -166 0
-284 279 0
-284 166 0
-284 165 -168 0
-284 -165 168 0
284 -279 165 168 -166 0
284 -279 -165 -168 -166 0
285 282 -163 0
285 -282 163 0
-285 282 163 0
-285 -282 -163 0
286 166 -164 0
286 -166 164 0
-286 166 164 0
-286 -166 -164 0
-287 282 0
-287 164 0
-287 163 -166 0
-287 -163 166 0
287 -282 163 166 -164 0
287 -282 -163 -166 -164 0
288 285 -161 0
288 -285 161 0
-288 285 161 0
-288 -285 -161 0
289 164 -162 0
289 -164 162 0
-289 164 162 0
-289 -164 -162 0
-290 285 0
-290 162 0
-290 161 -164 0
-290 -161 164 0
290 -285 161 164 -162 0
290 -285 -161 -164 -162 0
291 288 -159 0
291 -288 159 0
-291 288 159 0
-291 -288 -159 0
292 162 -160 0
292 -162 160 0
-292 162 160 0
-292 -162 -160 0
-293 288 0
-293 160 0
-293 159 -162 0
-293 -159 162 0
293 -288 159 162 -160 0
293 -288 -159 -162 -160 0
294 291 -157 0
294 -291 157 0
-294 291 157 0
-294 -291 -157 0
295 160 -158 0
295 -160 158 0
-295 160 158 0
-295 -160 -158 0
-296 291 0
-296 158 0
-296 157 -160 0
-296 -157 160 0
296 -291 157 160 -158 0
296 -291 -157 -160 -158 0
297 294 -155 0
297 -294 155 0
-297 294 155 0
-297 -294 -155 0
298 158 -156 0
298 -158 156 0
-298 158 156 0
-298 -158 -156 0
-299 294 0
-299 156 0
-299 155 -158 0
-299 -155 158 0
299 -294 155 158 -156 0
299 -294 -155 -158 -156 0
300 297 -153 0
300 -297 153 0
-300 297 153 0
-300 -297 -153 0
301 156 -154 0
301 -156 154 0
-301 156 154 0
-301 -156 -154 0
-302 297 0
-302 154 0
-302 153 -156 0
-302 -153 156 0
302 -297 153 156 -154 0
302 -297 -153 -156 -154 0
303 300 -151 0
303 -300 151 0
-303 300 151 0
-303 -300 -151 0
304 154 -152 0
304 -154 152 0
-304 154 152 0
-304 -154 -152 0
-305 300 0
-305 152 0
-305 151 -154 0
-305 -151 154 0
305 -300 151 154 -152 0
305 -300 -151 -154 -152 0
306 303 -149 0
306 -303 149 0
-306 303 149 0
-306 -303 -149 0
307 152 -150 0
307 -152 150 0
-307 152 150 0
-307 -152 -150 0
-308 303 0
-308 150 0
-308 149 -152 0
-308 -149 152 0
308 -303 149 152 -150 0
308 -303 -149 -152 -150 0
309 306 -147 0
309 -306 147 0
-309 306 147 0
-309 -306 -147 0
310 150 -148 0
310 -150 148 0
-310 150 148 0
-310 -150 -148 0
-311 306 0
-311 148 0
-311 147 -150 0
-311 -147 150 0
311 -306 147 150 -148 0
311 -306 -147 -150 -148 0
312 309 -145 0
312 -309 145 0
-312 309 145 0
-312 -309 -145 0
313 148 -146 0
313 -148 146 0
-313 148 146 0
-313 -148 -146 0
-314 309 0
-314 146 0
-314 145 -148 0
-314 -145 148 0
314 -309 145 148 -146 0
314 -309 -145 -148 -146 0
315 312 -143 0
315 -312 143 0
-315 312 143 0
-315 -312 -143 0
316 146 -144 0
316 -146 144 0
-316 146 144 0
-316 -146 -144 0
-317 312 0
-317 144 0
-317 143 -146 0
-317 -143 146 0
317 -312 143 146 -144 0
317 -312 -143 -146 -144 0
318 315 -141 0
318 -315 141 0
-318 315 141 0
-318 -315 -141 0
319 144 -142 0
319 -144 142 0
-319 144 142 0
-319 -144 -142 0
-320 315 0
-320 142 0
-320 141 -144 0
-320 -141 144 0
320 -315 141 144 -142 0
320 -315 -141 -144 -142 0
321 318 -139 0
321 -318 139 0
-321 318 139 0
-321 -318 -139 0
322 142 -140 0
322 -142 140 0
-322 142 140 0
-322 -142 -140 0
-323 318 0
-323 140 0
-323 139 -142 0
-323 -139 142 0
323 -318 139 142 -140 0
323 -318 -139 -142 -140 0
324 321 -137 0
324 -321 137 0
-324 321 137 0
-324 -321 -137 0
325 140 -138 0
325 -140 138 0
-325 140 138 0
-325 -140 -138 0
-326 321 0
-326 138 0
-326 137 -140 0
-326 -137 140 0
326 -321 137 140 -138 0
326 -321 -137 -140 -138 0
327 324 -135 0
327 -324 135 0
-327 324 135 0
-327 -324 -135 0
328 138 -136 0
328 -138 136 0
-328 138 136 0
-328 -138 -136 0
-329 324 0
-329 136 0
-329 135 -138 0
-329 -135 138 0
329 -324 135 138 -136 0
329 -324 -135 -138 -136 0
330 327 -133 0
330 -327 133 0
-330 327 133 0
-330 -327 -133 0
331 136 -134 0
331 -136 134 0
-331 136 134 0
-331 -136 -134 0
-332 327 0
-332 134 0
-332 133 -136 0
-332 -133 136 0
332 -327 133 136 -134 0
332 -327 -133 -136 -134 0
333 330 -131 0
333 -330 131 0
-333 330 131 0
-333 -330 -131 0
334 134 -132 0
334 -134 132 0
-334 134 132 0
-334 -134 -132 0
-335 330 0
-335 132 0
-335 131 -134 0
-335 -131 134 0
335 -330 131 134 -132 0
335 -330 -131 -134 -132 0
336 333 -129 0
336 -333 129 0
-336 333 129 0
-336 -333 -129 0
337 132 -130 0
337 -132 130 0
-337 132 130 0
-337 -132 -130 0
-338 333 0
-338 130 0
-338 129 -132 0
-338 -129 132 0
338 -333 129 132 -130 0
338 -333 -129 -132 -130 0
339 336 -127 0
339 -336 127 0
-339 336 127 0
-339 -336 -127 0
340 130 -128 0
340 -130 128 0
-340 130 128 0
-340 -130 -128 0
-341 336 0
-341 128 0
-341 127 -130 0
-341 -127 130 0
341 -336 127 130 -128 0
341 -336 -127 -130 -128 0
342 339 -125 0
342 -339 125 0
-342 339 125 0
-342 -339 -125 0
343 128 -126 0
343 -128 126 0
-343 128 126 0
-343 -128 -126 0
-344 339 0
-344 126 0
-344 125 -128 0
-344 -125 128 0
344 -339 125 128 -126 0
344 -339 -125 -128 -126 0
345 342 -123 0
345 -342 123 0
-345 342 123 0
-345 -342 -123 0
346 126 -124 0
346 -126 124 0
-346 126 124 0
-346 -126 -124 0
-347 342 0
-347 124 0
-347 123 -126 0
-347 -123 126 0
347 -342 123 126 -124 0
347 -342 -123 -126 -124 0
348 345 -121 0
348 -345 121 0
-348 345 121 0
-348 -345 -121 0
349 124 -122 0
349 -124 122 0
-349 124 122 0
-349 -124 -122 0
-350 345 0
-350 122 0
-350 121 -124 0
-350 -121 124 0
350 -345 121 124 -122 0
350 -345 -121 -124 -122 0
351 348 -119 0
351 -348 119 0
-351 348 119 0
-351 -348 -119 0
352 122 -120 0
352 -122 120 0
-352 122 120 0
-352 -122 -120 0
-353 348 0
-353 120 0
-353 119 -122 0
-353 -119 122 0
353 -348 119 122 -120 0
353 -348 -119 -122 -120 0
354 351 -117 0
354 -351 117 0
-354 351 117 0
-354 -351 -117 0
355 120 -118 0
355 -120 118 0
-355 120 118 0
-355 -120 -118 0
-356 351 0
-356 118 0
-356 117 -120 0
-356 -117 120 0
356 -351 117 120 -118 0
356 -351 -117 -120 -118 0
357 354 -115 0
357 -354 115 0
-357 354 115 0
-357 -354 -115 0
358 118 -116 0
358 -118 116 0
-358 118 116 0
-358 -118 -116 0
-359 354 0
-359 116 0
-359 115 -118 0
-359 -115 118 0
359 -354 115 118 -116 0
359 -354 -115 -118 -116 0
360 357 -113 0
360 -357 113 0
-360 357 113 0
-360 -357 -113 0
361 116 -114 0
361 -116 114 0
-361 116 114 0
-361 -116 -114 0
-362 357 0
-362 114 0
-362 113 -116 0
-362 -113 116 0
362 -357 113 116 -114 0
362 -357 -113 -116 -114 0
363 360 -111 0
363 -360 111 0
-363 360 111 0
-363 -360 -111 0
364 114 -112 0
364 -114 112 0
-364 114 112 0
-364 -114 -112 0
-365 360 0
-365 112 0
-365 111 -114 0
-365 -111 114 0
365 -360 111 114 -112 0
365 -360 -111 -114 -112 0
366 363 -109 0
366 -363 109 0
-366 363 109 0
-366 -363 -109 0
367 112 -110 0
367 -112 110 0
-367 112 110 0
-367 -112 -110 0
-368 363 0
-368 110 0
-368 109 -112 0
-368 -109 112 0
368 -363 109 112 -110 0
368 -363 -109 -112 -110 0
369 366 -107 0
369 -366 107 0
-369 366 107 0
-369 -366 -107 0
370 110 -108 0
370 -110 108 0
-370 110 108 0
-370 -110 -108 0
-371 366 0
-371 108 0
-371 107 -110 0
-371 -107 110 0
371 -366 107 110 -108 0
371 -366 -107 -110 -108 0
372 369 -105 0
372 -369 105 0
-372 369 105 0
-372 -369 -105 0
373 108 -106 0
373 -108 106 0
-373 108 106 0
-373 -108 -106 0
-374 369 0
-374 106 0
-374 105 -108 0
-374 -105 108 0
374 -369 105 108 -106 0
374 -369 -105 -108 -106 0
375 372 -103 0
375 -372 103 0
-375 372 103 0
-375 -372 -103 0
376 106 -104 0
376 -106 104 0
-376 106 104 0
-376 -106 -104 0
-377 372 0
-377 104 0
-377 103 -106 0
-377 -103 106 0
377 -372 103 106 -104 0
377 -372 -103 -106 -104 0
378 375 -101 0
378 -375 101 0
-378 375 101 0
-378 -375 -101 0
379 104 -102 0
379 -104 102 0
-379 104 102 0
-379 -104 -102 0
-380 375 0
-380 102 0
-380 101 -104 0
-380 -101 104 0
380 -375 101 104 -102 0
380 -375 -101 -104 -102 0
381 378 -99 0
381 -378 99 0
-381 378 99 0
-381 -378 -99 0
382 102 -100 0
382 -102 100 0
-382 102 100 0
-382 -102 -100 0
-383 378 0
-383 100 0
-383 99 -102 0
-383 -99 102 0
383 -378 99 102 -100 0
383 -378 -99 -102 -100 0
384 381 -97 0
384 -381 97 0
-384 381 97 0
-384 -381 -97 0
385 100 -98 0
385 -100 98 0
-385 100 98 0
-385 -100 -98 0
-386 381 0
-386 98 0
-386 97 -100 0
-386 -97 100 0
386 -381 97 100 -98 0
386 -381 -97 -100 -98 0
387 384 -95 0
387 -384 95 0
-387 384 95 0
-387 -384 -95 0
388 98 -96 0
388 -98 96 0
-388 98 96 0
-388 -98 -96 0
-389 384 0
-389 96 0
-389 95 -98 0
-389 -95 98 0
389 -384 95 98 -96 0
389 -384 -95 -98 -96 0
390 387 -93 0
390 -387 93 0
-390 387 93 0
-390 -387 -93 0
391 96 -94 0
391 -96 94 0
-391 96 94 0
-391 -96 -94 0
-392 387 0
-392 94 0
-392 93 -96 0
-392 -93 96 0
392 -387 93 96 -94 0
392 -387 -93 -96 -94 0
393 390 -91 0
393 -390 91 0
-393 390 91 0
-393 -390 -91 0
394 94 -92 0
394 -94 92 0
-394 94 92 0
-394 -94 -92 0
-395 390 0
-395 92 0
-395 91 -94 0
-395 -91 94 0
395 -390 91 94 -92 0
395 -390 -91 -94 -92 0
396 393 -89 0
396 -393 89 0
-396 393 89 0
-396 -393 -89 0
397 92 -90 0
397 -92 90 0
-397 92 90 0
-397 -92 -90 0
-398 393 0
-398 90 0
-398 89 -92 0
-398 -89 92 0
398 -393 89 92 -90 0
398 -393 -89 -92 -90 0
399 396 -87 0
399 -396 87 0
-399 396 87 0
-399 -396 -87 0
400 90 -88 0
400 -90 88 0
-400 90 88 0
-400 -90 -88 0
-401 396 0
-401 88 0
-401 87 -90 0
-401 -87 90 0
401 -396 87 90 -88 0
401 -396 -87 -90 -88 0
402 399 -85 0
402 -399 85 0
-402 399 85 0
-402 -399 -85 0
403 88 -86 0
403 -88 86 0
-403 88 86 0
-403 -88 -86 0
-404 399 0
-404 86 0
-404 85 -88 0
-404 -85 88 0
404 -399 85 88 -86 0
404 -399 -85 -88 -86 0
405 402 -83 0
405 -402 83 0
-405 402 83 0
-405 -402 -83 0
406 86 -84 0
406 -86 84 0
-406 86 84 0
-406 -86 -84 0
-407 402 0
-407 84 0
-407 83 -86 0
-407 -83 86 0
407 -402 83 86 -84 0
407 -402 -83 -86 -84 0
408 405 -81 0
408 -405 81 0
-408 405 81 0
-408 -405 -81 0
409 84 -82 0
409 -84 82 0
-409 84 82 0
-409 -84 -82 0
-410 405 0
-410 82 0
-410 81 -84 0
-410 -81 84 0
410 -405 81 84 -82 0
410 -405 -81 -84 -82 0
411 408 -79 0
411 -408 79 0
-411 408 79 0
-411 -408 -79 0
412 82 -80 0
412 -82 80 0
-412 82 80 0
-412 -82 -80 0
-413 408 0
-413 80 0
-413 79 -82 0
-413 -79 82 0
413 -408 79 82 -80 0
413 -408 -79 -82 -80 0
414 411 -77 0
414 -411 77 0
-414 411 77 0
-414 -411 -77 0
415 80 -78 0
415 -80 78 0
-415 80 78 0
-415 -80 -78 0
-416 411 0
-416 78 0
-416 77 -80 0
-416 -77 80 0
416 -411 77 80 -78 0
416 -411 -77 -80 -78 0
417 414 -75 0
417 -414 75 0
-417 414 75 0
-417 -414 -75 0
418 78 -76 0
418 -78 76 0
-418 78 76 0
-418 -78 -76 0
-419 414 0
-419 76 0
-419 75 -78 0
-419 -75 78 0
419 -414 75 78 -76 0
419 -414 -75 -78 -76 0
420 417 -73 0
420 -417 73 0
-420 417 73 0
-420 -417 -73 0
421 76 -74 0
421 -76 74 0
-421 76 74 0
-421 -76 -74 0
-422 417 0
-422 74 0
-422 73 -76 0
-422 -73 76 0
422 -417 73 76 -74 0
422 -417 -73 -76 -74 0
423 420 -71 0
423 -420 71 0
-423 420 71 0
-423 -420 -71 0
424 74 -72 0
424 -74 72 0
-424 74 72 0
-424 -74 -72 0
-425 420 0
-425 72 0
-425 71 -74 0
-425 -71 74 0
425 -420 71 74 -72 0
425 -420 -71 -74 -72 0
426 423 -69 0
426 -423 69 0
-426 423 69 0
-426 -423 -69 0
427 72 -70 0
427 -72 70 0
-427 72 70 0
-427 -72 -70 0
-428 423 0
-428 70 0
-428 69 -72 0
-428 -69 72 0
428 -423 69 72 -70 0
428 -423 -69 -72 -70 0
429 426 -67 0
429 -426 67 0
-429 426 67 0
-429 -426 -67 0
430 70 -68 0
430 -70 68 0
-430 70 68 0
-430 -70 -68 0
-431 426 0
-431 68 0
-431 67 -70 0
-431 -67 70 0
431 -426 67 70 -68 0
431 -426 -67 -70 -68 0
432 429 -65 0
432 -429 65 0
-432 429 65 0
-432 -429 -65 0
433 68 -66 0
433 -68 66 0
-433 68 66 0
-433 -68 -66 0
-434 429 0
-434 66 0
-434 65 -68 0
-434 -65 68 0
434 -429 65 68 -66 0
434 -429 -65 -68 -66 0
435 432 -63 0
435 -432 63 0
-435 432 63 0
-435 -432 -63 0
436 66 -64 0
436 -66 64 0
-436 66 64 0
-436 -66 -64 0
-437 432 0
-437 64 0
-437 63 -66 0
-437 -63 66 0
437 -432 63 66 -64 0
437 -432 -63 -66 -64 0
438 435 -61 0
438 -435 61 0
-438 435 61 0
-438 -435 -61 0
439 64 -62 0
439 -64 62 0
-439 64 62 0
-439 -64 -62 0
-440 435 0
-440 62 0
-440 61 -64 0
-440 -61 64 0
440 -435 61 64 -62 0
440 -435 -61 -64 -62 0
441 438 -59 0
441 -438 59 0
-441 438 59 0
-441 -438 -59 0
442 62 -60 0
442 -62 60 0
-442 62 60 0
-442 -62 -60 0
-443 438 0
-443 60 0
-443 59 -62 0
-443 -59 62 0
443 -438 59 62 -60 0
443 -438 -59 -62 -60 0
444 441 -57 0
444 -441 57 0
-444 441 57 0
-444 -441 -57 0
445 60 -58 0
445 -60 58 0
-445 60 58 0
-445 -60 -58 0
-446 441 0
-446 58 0
-446 57 -60 0
-446 -57 60 0
446 -441 57 60 -58 0
446 -441 -57 -60 -58 0
447 444 -55 0
447 -444 55 0
-447 444 55 0
-447 -444 -55 0
448 58 -56 0
448 -58 56 0
-448 58 56 0
-448 -58 -56 0
-449 444 0
-449 56 0
-449 55 -58 0
-449 -55 58 0
449 -444 55 58 -56 0
449 -444 -55 -58 -56 0
450 447 -53 0
450 -447 53 0
-450 447 53 0
-450 -447 -53 0
451 56 -54 0
451 -56 54 0
-451 56 54 0
-451 -56 -54 0
-452 447 0
-452 54 0
-452 53 -56 0
-452 -53 56 0
452 -447 53 56 -54 0
452 -447 -53 -56 -54 0
453 450 -51 0
453 -450 51 0
-453 450 51 0
-453 -450 -51 0
454 54 -52 0
454 -54 52 0
-454 54 52 0
-454 -54 -52 0
-455 450 0
-455 52 0
-455 51 -54 0
-455 -51 54 0
455 -450 51 54 -52 0
455 -450 -51 -54 -52 0
456 453 -49 0
456 -453 49 0
-456 453 49 0
-456 -453 -49 0
457 52 -50 0
457 -52 50 0
-457 52 50 0
-457 -52 -50 0
-458 453 0
-458 50 0
-458 49 -52 0
-458 -49 52 0
458 -453 49 52 -50 0
458 -453 -49 -52 -50 0
459 456 -47 0
459 -456 47 0
-459 456 47 0
-459 -456 -47 0
460 50 -48 0
460 -50 48 0
-460 50 48 0
-460 -50 -48 0
-461 456 0
-461 48 0
-461 47 -50 0
-461 -47 50 0
461 -456 47 50 -48 0
461 -456 -47 -50 -48 0
462 459 -45 0
462 -459 45 0
-462 459 45 0
-462 -459 -45 0
463 48 -46 0
463 -48 46 0
-463 48 46 0
-463 -48 -46 0
-464 459 0
-464 46 0
-464 45 -48 0
-464 -45 48 0
464 -459 45 48 -46 0
464 -459 -45 -48 -46 0
465 462 -43 0
465 -462 43 0
-465 462 43 0
-465 -462 -43 0
466 46 -44 0
466 -46 44 0
-466 46 44 0
-466 -46 -44 0
-467 462 0
-467 44 0
-467 43 -46 0
-467 -43 46 0
467 -462 43 46 -44 0
467 -462 -43 -46 -44 0
468 465 -41 0
468 -465 41 0
-468 465 41 0
-468 -465 -41 0
469 44 -42 0
469 -44 42 0
-469 44 42 0
-469 -44 -42 0
-470 465 0
-470 42 0
-470 41 -44 0
-470 -41 44 0
470 -465 41 44 -42 0
470 -465 -41 -44 -42 0
471 468 -39 0
471 -468 39 0
-471 468 39 0
-471 -468 -39 0
472 42 -40 0
472 -42 40 0
-472 42 40 0
-472 -42 -40 0
-473 468 0
-473 40 0
-473 39 -42 0
-473 -39 42 0
473 -468 39 42 -40 0
473 -468 -39 -42 -40 0
474 471 -37 0
474 -471 37 0
-474 471 37 0
-474 -471 -37 0
475 40 -38 0
475 -40 38 0
-475 40 38 0
-475 -40 -38 0
-476 471 0
-476 38 0
-476 37 -40 0
-476 -37 40 0
476 -471 37 40 -38 0
476 -471 -37 -40 -38 0
477 474 -35 0
477 -474 35 0
-477 474 35 0
-477 -474 -35 0
478 38 -36 0
478 -38 36 0
-478 38 36 0
-478 -38 -36 0
-479 474 0
-479 36 0
-479 35 -38 0
-479 -35 38 0
479 -474 35 38 -36 0
479 -474 -35 -38 -36 0
480 477 -33 0
480 -477 33 0
-480 477 33 0
-480 -477 -33 0
481 36 -34 0
481 -36 34 0
-481 36 34 0
-481 -36 -34 0
-482 477 0
-482 34 0
-482 33 -36 0
-482 -33 36 0
482 -477 33 36 -34 0
482 -477 -33 -36 -34 0
483 480 -31 0
483 -480 31 0
-483 480 31 0
-483 -480 -31 0
484 34 -32 0
484 -34 32 0
-484 34 32 0
-484 -34 -32 0
-485 480 0
-485 32 0
-485 31 -34 0
-485 -31 34 0
485 -480 31 34 -32 0
485 -480 -31 -34 -32 0
486 483 -29 0
486 -483 29 0
-486 483 29 0
-486 -483 -29 0
487 32 -30 0
487 -32 30 0
-487 32 30 0
-487 -32 -30 0
-488 483 0
-488 30 0
-488 29 -32 0
-488 -29 32 0
488 -483 29 32 -30 0
488 -483 -29 -32 -30 0
489 486 -27 0
489 -486 27 0
-489 486 27 0
-489 -486 -27 0
490 30 -28 0
490 -30 28 0
-490 30 28 0
-490 -30 -28 0
-491 486 0
-491 28 0
-491 27 -30 0
-491 -27 30 0
491 -486 27 30 -28 0
491 -486 -27 -30 -28 0
492 489 -25 0
492 -489 25 0
-492 489 25 0
-492 -489 -25 0
493 28 -26 0
493 -28 26 0
-493 28 26 0
-493 -28 -26 0
-494 489 0
-494 26 0
-494 25 -28 0
-494 -25 28 0
494 -489 25 28 -26 0
494 -489 -25 -28 -26 0
495 492 -23 0
495 -492 23 0
-495 492 23 0
-495 -492 -23 0
496 26 -24 0
496 -26 24 0
-496 26 24 0
-496 -26 -24 0
-497 492 0
-497 24 0
-497 23 -26 0
-497 -23 26 0
497 -492 23 26 -24 0
497 -492 -23 -26 -24 0
498 495 -21 0
498 -495 21 0
-498 495 21 0
-498 -495 -21 0
499 24 -22 0
499 -24 22 0
-499 24 22 0
-499 -24 -22 0
-500 495 0
-500 22 0
-500 21 -24 0
-500 -21 24 0
500 -495 21 24 -22 0
500 -495 -21 -24 -22 0
501 498 -19 0
501 -498 19 0
-501 498 19 0
-501 -498 -19 0
502 22 -20 0
502 -22 20 0
-502 22 20 0
-502 -22 -20 0
-503 498 0
-503 20 0
-503 19 -22 0
-503 -19 22 0
503 -498 19 22 -20 0
503 -498 -19 -22 -20 0
504 501 -17 0
504 -501 17 0
-504 501 17 0
-504 -501 -17 0
505 20 -18 0
505 -20 18 0
-505 20 18 0
-505 -20 -18 0
-506 501 0
-506 18 0
-506 17 -20 0
-506 -17 20 0
506 -501 17 20 -18 0
506 -501 -17 -20 -18 0
507 504 -15 0
507 -504 15 0
-507 504 15 0
-507 -504 -15 0
508 18 -16 0
508 -18 16 0
-508 18 16 0
-508 -18 -16 0
-509 504 0
-509 16 0
-509 15 -18 0
-509 -15 18 0
509 -504 15 18 -16 0
509 -504 -15 -18 -16 0
510 507 -13 0
510 -507 13 0
-510 507 13 0
-510 -507 -13 0
511 16 -14 0
511 -16 14 0
-511 16 14 0
-511 -16 -14 0
-512 507 0
-512 14 0
-512 13 -16 0
-512 -13 16 0
512 -507 13 16 -14 0
512 -507 -13 -16 -14 0
513 510 -11 0
513 -510 11 0
-513 510 11 0
-513 -510 -11 0
514 14 -12 0
514 -14 12 0
-514 14 12 0
-514 -14 -12 0
-515 510 0
-515 12 0
-515 11 -14 0
-515 -11 14 0
515 -510 11 14 -12 0
515 -510 -11 -14 -12 0
516 513 -9 0
516 -513 9 0
-516 513 9 0
-516 -513 -9 0
517 12 -10 0
517 -12 10 0
-517 12 10 0
-517 -12 -10 0
-518 513 0
-518 10 0
-518 9 -12 0
-518 -9 12 0
518 -513 9 12 -10 0
518 -513 -9 -12 -10 0
519 516 -7 0
519 -516 7 0
-519 516 7 0
-519 -516 -7 0
520 10 -8 0
520 -10 8 0
-520 10 8 0
-520 -10 -8 0
-521 516 0
-521 8 0
-521 7 -10 0
-521 -7 10 0
521 -516 7 10 -8 0
521 -516 -7 -10 -8 0
522 519 -5 0
522 -519 5 0
-522 519 5 0
-522 -519 -5 0
523 8 -6 0
523 -8 6 0
-523 8 6 0
-523 -8 -6 0
-524 519 0
-524 6 0
-524 5 -8 0
-524 -5 8 0
524 -519 5 8 -6 0
524 -519 -5 -8 -6 0
525 522 -3 0
525 -522 3 0
-525 522 3 0
-525 -522 -3 0
526 6 -4 0
526 -6 4 0
-526 6 4 0
-526 -6 -4 0
-527 522 0
-527 4 0
-527 3 -6 0
-527 -3 6 0
527 -522 3 6 -4 0
527 -522 -3 -6 -4 0
528 525 -1 0
528 -525 1 0
-528 525 1 0
-528 -525 -1 0
529 4 -2 0
529 -4 2 0
-529 4 2 0
-529 -4 -2 0
-530 525 0
-530 2 0
-530 1 -4 0
-530 -1 4 0
530 -525 1 4 -2 0
530 -525 -1 -4 -2 0
-528 0
-525 0
-529 0
-522 0
-526 0
-519 0
-523 0
-516 0
-520 0
-513 0
-517 0
-510 0
-514 0
-507 0
-511 0
-504 0
-508 0
-501 0
-505 0
-498 0
-502 0
-495 0
-499 0
-492 0
-496 0
-489 0
-493 0
-486 0
-490 0
-483 0
-487 0
-480 0
-484 0
-477 0
-481 0
-474 0
-478 0
-471 0
-475 0
-468 0
-472 0
-465 0
-469 0
-462 0
-466 0
-459 0
-463 0
-456 0
-460 0
-453 0
-457 0
-450 0
-454 0
-447 0
-451 0
-444 0
-448 0
-441 0
-445 0
-438 0
-442 0
-435 0
-439 0
-432 0
-436 0
-429 0
-433 0
-426 0
-430 0
-423 0
-427 0
-420 0
-424 0
-417 0
-421 0
-414 0
-418 0
-411 0
-415 0
-408 0
-412 0
-405 0
-409 0
-402 0
-406 0
-399 0
-403 0
-396 0
-400 0
-393 0
-397 0
-390 0
-394 0
-387 0
-391 0
-384 0
-388 0
-381 0
-385 0
-378 0
-382 0
-375 0
-379 0
-372 0
-376 0
-369 0
-373 0
-366 0
-370 0
-363 0
-367 0
-360 0
-364 0
-357 0
-361 0
-354 0
-358 0
-351 0
-355 0
-348 0
-352 0
-345 0
-349 0
-342 0
-346 0
-339 0
-343 0
-336 0
-340 0
-333 0
-337 0
-330 0
-334 0
-327 0
-331 0
-324 0
-328 0
-321 0
-325 0
-318 0
-322 0
-315 0
-319 0
-312 0
-316 0
-309 0
-313 0
-306 0
-310 0
-303 0
-307 0
-300 0
-304 0
-297 0
-301 0
-294 0
-298 0
-291 0
-295 0
-288 0
-292 0
-285 0
-289 0
-282 0
-286 0
-279 0
-283 0
-276 0
-280 0
-273 0
-277 0
-270 0
-274 0
-267 0
-271 0
-264 0
-268 0
-261 0
-265 0
-258 0
-262 0
-255 0
-259 0
-252 0
-256 0
-249 0
-253 0
-246 0
-250 0
-243 0
-247 0
-240 0
-244 0
-237 0
-241 0
-234 0
-238 0
-231 0
-235 0
-228 0
-232 0
-225 0
-229 0
-222 0
-226 0
-219 0
-223 0
-213 0
-220 0
